Problem:    ex01
Rows:       10
Columns:    7 (3 integer, 3 binary)
Non-zeros:  25
Status:     INTEGER OPTIMAL
Objective:  FinExec = 23 (MINimum)

   No.   Row name        Activity     Lower bound   Upper bound
------ ------------    ------------- ------------- -------------
     1 FinExec                    23                             
     2 finExecDerniereContrainte[1]
                                  23             4               
     3 finExecDerniereContrainte[2]
                                   9             9               
     4 finExecDerniereContrainte[3]
                                  17             8               
     5 avant0[1,2]                11                          21 
     6 avant0[1,3]                19                          21 
     7 avant0[2,3]                 8                          16 
     8 avant1[1,2]               -11                          -9 
     9 avant1[1,3]               -14                          -8 
    10 avant1[2,3]                -8                          -8 

   No. Column name       Activity     Lower bound   Upper bound
------ ------------    ------------- ------------- -------------
     1 dateDebutExec[1]
                                   0             0            21 
     2 dateDebutExec[2]
                                  14             3            16 
     3 dateDebutExec[3]
                                   6             6            12 
     4 finExecDerniere
                                  23             0               
     5 y[1,2]       *              1             0             1 
     6 y[1,3]       *              1             0             1 
     7 y[2,3]       *              0             0             1 

Integer feasibility conditions:

KKT.PE: max.abs.err = 0.00e+00 on row 0
        max.rel.err = 0.00e+00 on row 0
        High quality

KKT.PB: max.abs.err = 0.00e+00 on row 0
        max.rel.err = 0.00e+00 on row 0
        High quality

End of output
